% Instancia Pequeñas #3
% Generada el 2025-11-13 04:57:40

num_trabajadores = 13;
horizonte_dias = 6;
num_semanas = 1;
TURNOS = 1..2;

demanda = array2d(1..horizonte_dias, 1..2, [
  3, 3,
  5, 2,
  3, 2,
  5, 2,
  4, 2,
  4, 2
]);

puntajes = array3d(1..num_trabajadores, 1..horizonte_dias, 1..2, [
  8, 8,
  2, 6,
  6, 7,
  8, 0,
  4, 0,
  4, 1,
  1, 4,
  1, 1,
  0, 10,
  8, 6,
  10, 4,
  6, 7,
  2, 10,
  8, 7,
  10, 5,
  4, 0,
  1, 7,
  6, 6,
  6, 6,
  1, 7,
  5, 9,
  5, 10,
  4, 4,
  4, 10,
  3, 9,
  9, 3,
  5, 0,
  9, 9,
  1, 1,
  8, 5,
  4, 6,
  1, 3,
  7, 4,
  3, 7,
  0, 8,
  7, 7,
  0, 10,
  4, 2,
  10, 2,
  6, 1,
  6, 9,
  1, 1,
  3, 5,
  5, 4,
  7, 0,
  1, 2,
  4, 5,
  5, 4,
  1, 5,
  1, 3,
  9, 3,
  5, 2,
  2, 8,
  4, 9,
  9, 1,
  10, 0,
  8, 0,
  5, 10,
  8, 7,
  2, 2,
  0, 5,
  4, 0,
  2, 9,
  1, 0,
  10, 1,
  2, 4,
  1, 4,
  0, 10,
  3, 9,
  3, 9,
  10, 4,
  10, 8,
  2, 9,
  5, 10,
  7, 10,
  9, 10,
  3, 7,
  2, 8
]);
